Results/Experiment 2 Results/New Benchmark/output_p1_0.00_p2_0.00_n_40_18.lp
clingo version 5.4.0
Reading from tempSRTISolver.lp ...
Solving...
Answer: 1
matched(6,2) matched(1,3) matched(8,4) matched(7,5) matched(2,6) matched(5,7) matched(4,8) matched(12,10) matched(9,11) matched(10,12) matched(11,9) matched(13,14) matched(20,15) matched(19,16) matched(18,17) matched(17,18) matched(16,19) matched(15,20) matched(14,13) matched(26,22) matched(21,23) matched(28,24) matched(27,25) matched(22,26) matched(25,27) matched(24,28) matched(23,21) matched(32,30) matched(29,31) matched(30,32) matched(31,29) matched(38,34) matched(33,35) matched(40,36) matched(39,37) matched(34,38) matched(37,39) matched(36,40) matched(35,33) matched(3,1)
Optimization: 349
Answer: 2
matched(6,2) matched(1,3) matched(8,4) matched(7,5) matched(2,6) matched(5,7) matched(4,8) matched(12,10) matched(9,11) matched(10,12) matched(11,9) matched(13,14) matched(20,15) matched(19,16) matched(18,17) matched(17,18) matched(16,19) matched(15,20) matched(14,13) matched(26,22) matched(21,23) matched(28,24) matched(27,25) matched(22,26) matched(25,27) matched(24,28) matched(23,21) matched(31,30) matched(30,31) matched(29,32) matched(32,29) matched(38,34) matched(33,35) matched(40,36) matched(39,37) matched(34,38) matched(37,39) matched(36,40) matched(35,33) matched(3,1)
Optimization: 347
Answer: 3
matched(6,2) matched(1,3) matched(8,4) matched(7,5) matched(2,6) matched(5,7) matched(4,8) matched(12,10) matched(9,11) matched(10,12) matched(11,9) matched(13,14) matched(20,15) matched(19,16) matched(18,17) matched(17,18) matched(16,19) matched(15,20) matched(14,13) matched(27,22) matched(28,23) matched(21,24) matched(26,25) matched(25,26) matched(22,27) matched(23,28) matched(24,21) matched(31,30) matched(30,31) matched(29,32) matched(32,29) matched(38,34) matched(33,35) matched(40,36) matched(39,37) matched(34,38) matched(37,39) matched(36,40) matched(35,33) matched(3,1)
Optimization: 341
Answer: 4
matched(6,2) matched(1,3) matched(8,4) matched(7,5) matched(2,6) matched(5,7) matched(4,8) matched(12,10) matched(9,11) matched(10,12) matched(11,9) matched(13,14) matched(20,15) matched(19,16) matched(18,17) matched(17,18) matched(16,19) matched(15,20) matched(14,13) matched(27,22) matched(26,23) matched(21,24) matched(28,25) matched(23,26) matched(22,27) matched(25,28) matched(24,21) matched(31,30) matched(30,31) matched(29,32) matched(32,29) matched(38,34) matched(33,35) matched(40,36) matched(39,37) matched(34,38) matched(37,39) matched(36,40) matched(35,33) matched(3,1)
Optimization: 333
Answer: 5
matched(7,2) matched(6,3) matched(1,4) matched(8,5) matched(3,6) matched(2,7) matched(5,8) matched(12,10) matched(9,11) matched(10,12) matched(11,9) matched(18,14) matched(13,15) matched(20,16) matched(19,17) matched(14,18) matched(17,19) matched(16,20) matched(15,13) matched(27,22) matched(26,23) matched(21,24) matched(28,25) matched(23,26) matched(22,27) matched(25,28) matched(24,21) matched(31,30) matched(30,31) matched(29,32) matched(32,29) matched(39,34) matched(40,35) matched(33,36) matched(38,37) matched(37,38) matched(34,39) matched(35,40) matched(36,33) matched(4,1)
Optimization: 316
Answer: 6
matched(7,2) matched(6,3) matched(1,4) matched(8,5) matched(3,6) matched(2,7) matched(5,8) matched(12,10) matched(9,11) matched(10,12) matched(11,9) matched(18,14) matched(13,15) matched(20,16) matched(19,17) matched(14,18) matched(17,19) matched(16,20) matched(15,13) matched(27,22) matched(26,23) matched(21,24) matched(28,25) matched(23,26) matched(22,27) matched(25,28) matched(24,21) matched(31,30) matched(30,31) matched(29,32) matched(32,29) matched(39,34) matched(38,35) matched(33,36) matched(40,37) matched(35,38) matched(34,39) matched(37,40) matched(36,33) matched(4,1)
Optimization: 311
Answer: 7
matched(7,2) matched(6,3) matched(1,4) matched(8,5) matched(3,6) matched(2,7) matched(5,8) matched(12,10) matched(9,11) matched(10,12) matched(11,9) matched(19,14) matched(20,15) matched(13,16) matched(18,17) matched(17,18) matched(14,19) matched(15,20) matched(16,13) matched(27,22) matched(26,23) matched(21,24) matched(28,25) matched(23,26) matched(22,27) matched(25,28) matched(24,21) matched(31,30) matched(30,31) matched(29,32) matched(32,29) matched(39,34) matched(38,35) matched(33,36) matched(40,37) matched(35,38) matched(34,39) matched(37,40) matched(36,33) matched(4,1)
Optimization: 309
OPTIMUM FOUND

Models       : 7
  Optimum    : yes
Optimization : 309
Calls        : 1
Time         : 2.198s (Solving: 0.31s 1st Model: 0.00s Unsat: 0.31s)
CPU Time     : 2.194s
